62      4       
23      22      12      24      
0       0       0       0       0       3       2       3       4       
9       0       0       0       6       3       6       23      32      
7       6       0       0       0       3       5       7       8       
1       0       0       1       0       3       12      49      54      
3       0       0       0       10      1       13      
1       9       0       0       0       1       16      
5       0       0       0       10      2       15      52      
4       10      0       0       0       1       9       
1       7       0       0       0       3       10      11      18      
7       0       1       0       0       2       14      33      
9       0       10      0       0       3       23      27      46      
9       0       0       0       4       2       38      55      
4       0       1       0       0       2       34      60      
6       0       0       0       7       1       37      
1       0       9       0       0       1       22      
3       0       0       4       0       3       17      19      25      
4       4       0       0       0       1       28      
5       7       0       0       0       3       20      22      24      
9       2       0       0       0       1       30      
4       0       0       0       4       2       21      31      
5       0       5       0       0       2       29      57      
8       0       0       1       0       1       50      
3       0       2       0       0       1       43      
2       10      0       0       0       1       26      
8       0       0       1       0       1       35      
4       0       3       0       0       1       30      
4       5       0       0       0       2       40      49      
7       0       0       0       1       2       36      45      
6       0       8       0       0       3       44      49      58      
2       4       0       0       0       2       34      56      
3       0       0       0       6       2       36      57      
9       9       0       0       0       1       54      
4       0       0       6       0       1       61      
3       0       10      0       0       1       59      
9       0       1       0       0       1       39      
7       0       0       9       0       1       41      
9       0       0       0       2       1       43      
7       0       6       0       0       1       44      
2       4       0       0       0       1       43      
10      0       0       0       5       1       42      
6       0       0       0       7       1       58      
6       0       0       0       5       1       55      
7       0       0       0       6       1       48      
9       3       0       0       0       1       56      
7       0       0       0       9       1       46      
8       5       0       0       0       1       47      
8       0       0       7       0       1       52      
3       9       0       0       0       1       52      
10      0       0       0       7       1       59      
1       1       0       0       0       1       51      
5       1       0       0       0       2       53      55      
7       0       0       0       8       1       53      
6       1       0       0       0       3       54      56      57      
5       2       0       0       0       2       60      61      
8       0       8       0       0       1       60      
9       0       10      0       0       1       59      
10      0       0       2       0       1       58      
7       0       0       10      0       1       61      
3       0       0       3       0       1       62      
9       0       0       0       6       1       62      
4       0       0       3       0       1       62      
0       0       0       0       0       0       